solution status: optimal solution found
objective value:                                   13
x#1#17                                              1 	(obj:0)
x#2#9                                               1 	(obj:0)
x#3#18                                              1 	(obj:0)
x#4#11                                              1 	(obj:0)
x#5#5                                               1 	(obj:0)
x#6#16                                              1 	(obj:0)
x#7#13                                              1 	(obj:0)
x#8#22                                              1 	(obj:0)
x#9#18                                              1 	(obj:0)
x#10#21                                             1 	(obj:0)
x#11#1                                              1 	(obj:0)
x#12#21                                             1 	(obj:0)
x#13#9                                              1 	(obj:0)
x#14#5                                              1 	(obj:0)
x#15#17                                             1 	(obj:0)
x#16#14                                             1 	(obj:0)
x#17#1                                              1 	(obj:0)
x#18#13                                             1 	(obj:0)
x#19#22                                             1 	(obj:0)
x#20#2                                              1 	(obj:0)
x#21#19                                             1 	(obj:0)
x#22#11                                             1 	(obj:0)
x#23#16                                             1 	(obj:0)
x#24#21                                             1 	(obj:0)
y#1                                                 1 	(obj:1)
y#2                                                 1 	(obj:1)
y#5                                                 1 	(obj:1)
y#9                                                 1 	(obj:1)
y#11                                                1 	(obj:1)
y#13                                                1 	(obj:1)
y#14                                                1 	(obj:1)
y#16                                                1 	(obj:1)
y#17                                                1 	(obj:1)
y#18                                                1 	(obj:1)
y#19                                                1 	(obj:1)
y#21                                                1 	(obj:1)
y#22                                                1 	(obj:1)
